nNurses = 99;
nHours = 30;
minHours = 6;
maxHours = 16;
maxConsec = 10;
maxPresence = 21;
demand = [18, 15, 18, 22, 17, 20, 23, 28, 33, 37, 40, 36, 33, 35, 32, 37, 33, 31, 27, 24, 26, 21, 21, 17, 18, 17, 20, 16, 15, 11];
